* SDPA format file. Generated by YALMIP 11-Jun-2024 01:18:02
155
10
-19 16 16 16 16 16 16 16 16 16 
1.000000000000000 0.000000000000000 0.000000000000000 0.000000000000000 0.000000000000000 0.000000000000000 0.000000000000000 0.000000000000000 0.000000000000000 0.000000000000000 0.000000000000000 0.000000000000000 0.000000000000000 0.000000000000000 0.000000000000000 0.000000000000000 0.000000000000000 0.000000000000000 0.000000000000000 0.000000000000000 0.000000000000000 0.000000000000000 0.000000000000000 0.000000000000000 0.000000000000000 0.000000000000000 0.000000000000000 0.000000000000000 0.000000000000000 0.000000000000000 0.000000000000000 0.000000000000000 0.000000000000000 0.000000000000000 0.000000000000000 0.000000000000000 0.000000000000000 0.000000000000000 0.000000000000000 0.000000000000000 0.000000000000000 0.000000000000000 0.000000000000000 0.000000000000000 0.000000000000000 0.000000000000000 0.000000000000000 0.000000000000000 0.000000000000000 0.000000000000000 0.000000000000000 0.000000000000000 0.000000000000000 0.000000000000000 0.000000000000000 0.000000000000000 0.000000000000000 0.000000000000000 0.000000000000000 0.000000000000000 0.000000000000000 0.000000000000000 0.000000000000000 0.000000000000000 0.000000000000000 0.000000000000000 0.000000000000000 0.000000000000000 0.000000000000000 0.000000000000000 0.000000000000000 0.000000000000000 0.000000000000000 0.000000000000000 0.000000000000000 0.000000000000000 0.000000000000000 0.000000000000000 0.000000000000000 0.000000000000000 0.000000000000000 0.000000000000000 0.000000000000000 0.000000000000000 0.000000000000000 0.000000000000000 0.000000000000000 0.000000000000000 0.000000000000000 0.000000000000000 0.000000000000000 0.000000000000000 0.000000000000000 0.000000000000000 0.000000000000000 0.000000000000000 0.000000000000000 0.000000000000000 0.000000000000000 0.000000000000000 0.000000000000000 0.000000000000000 0.000000000000000 0.000000000000000 0.000000000000000 0.000000000000000 0.000000000000000 0.000000000000000 0.000000000000000 0.000000000000000 0.000000000000000 0.000000000000000 0.000000000000000 0.000000000000000 0.000000000000000 0.000000000000000 0.000000000000000 0.000000000000000 0.000000000000000 0.000000000000000 0.000000000000000 0.000000000000000 0.000000000000000 0.000000000000000 0.000000000000000 0.000000000000000 0.000000000000000 0.000000000000000 0.000000000000000 0.000000000000000 0.000000000000000 0.000000000000000 0.000000000000000 0.000000000000000 0.000000000000000 0.000000000000000 0.000000000000000 0.000000000000000 0.000000000000000 0.000000000000000 0.000000000000000 0.000000000000000 0.000000000000000 0.000000000000000 0.000000000000000 0.000000000000000 0.000000000000000 0.000000000000000 0.000000000000000 0.000000000000000 0.000000000000000 0.000000000000000 0.000000000000000 0.000000000000000 0.000000000000000 
0 1 4 4 -2.1178334648496521808169746
0 1 5 5 -4.0117582902092907559676860
0 1 6 6 0.2278017839424983370655298
0 1 7 7 -0.8789386318733660719004774
0 1 8 8 -0.4507447320037316074170519
0 1 9 9 -1.8543901479375217711265122
0 1 10 10 0.1874094897174405360829041
0 1 11 11 -0.8362624930223124808392754
0 1 12 12 2.1178334648496521808169746
0 1 13 13 4.0117582902092907559676860
0 1 14 14 -0.2278017839424983370655298
0 1 15 15 0.8789386318733660719004774
0 1 16 16 0.4507447320037316074170519
0 1 17 17 1.8543901479375217711265122
0 1 18 18 -0.1874094897174405360829041
0 1 19 19 0.8362624930223124808392754
1 1 3 3 1.0000000000000000000000000
2 1 4 4 -1.0000000000000000000000000
2 1 12 12 1.0000000000000000000000000
2 2 1 5 1.0000000000000000000000000
2 2 2 6 1.0000000000000000000000000
2 2 9 13 1.0000000000000000000000000
2 2 10 14 1.0000000000000000000000000
2 3 1 1 1.0000000000000000000000000
2 3 2 2 1.0000000000000000000000000
2 3 9 9 1.0000000000000000000000000
2 3 10 10 1.0000000000000000000000000
2 4 1 1 1.0000000000000000000000000
2 4 2 2 1.0000000000000000000000000
2 4 9 9 1.0000000000000000000000000
2 4 10 10 1.0000000000000000000000000
2 5 1 1 1.0000000000000000000000000
2 5 2 2 1.0000000000000000000000000
2 5 9 9 1.0000000000000000000000000
2 5 10 10 1.0000000000000000000000000
2 6 1 1 1.0000000000000000000000000
2 6 2 2 1.0000000000000000000000000
2 6 9 9 1.0000000000000000000000000
2 6 10 10 1.0000000000000000000000000
2 7 1 1 1.0000000000000000000000000
2 7 2 2 1.0000000000000000000000000
2 7 9 9 1.0000000000000000000000000
2 7 10 10 1.0000000000000000000000000
2 8 1 1 1.0000000000000000000000000
2 8 2 2 1.0000000000000000000000000
2 8 9 9 1.0000000000000000000000000
2 8 10 10 1.0000000000000000000000000
2 9 1 1 1.0000000000000000000000000
2 9 2 2 1.0000000000000000000000000
2 9 9 9 1.0000000000000000000000000
2 9 10 10 1.0000000000000000000000000
2 10 1 1 1.0000000000000000000000000
2 10 2 2 1.0000000000000000000000000
2 10 9 9 1.0000000000000000000000000
2 10 10 10 1.0000000000000000000000000
3 1 6 6 -1.0000000000000000000000000
3 1 14 14 1.0000000000000000000000000
3 2 1 7 1.0000000000000000000000000
3 2 2 8 1.0000000000000000000000000
3 2 3 5 1.0000000000000000000000000
3 2 4 6 1.0000000000000000000000000
3 2 9 15 1.0000000000000000000000000
3 2 10 16 1.0000000000000000000000000
3 2 11 13 1.0000000000000000000000000
3 2 12 14 1.0000000000000000000000000
3 3 1 3 1.0000000000000000000000000
3 3 2 4 1.0000000000000000000000000
3 3 9 11 1.0000000000000000000000000
3 3 10 12 1.0000000000000000000000000
3 4 1 3 1.0000000000000000000000000
3 4 2 4 1.0000000000000000000000000
3 4 9 11 1.0000000000000000000000000
3 4 10 12 1.0000000000000000000000000
3 5 1 3 1.0000000000000000000000000
3 5 2 4 1.0000000000000000000000000
3 5 9 11 1.0000000000000000000000000
3 5 10 12 1.0000000000000000000000000
3 6 1 3 1.0000000000000000000000000
3 6 2 4 1.0000000000000000000000000
3 6 9 11 1.0000000000000000000000000
3 6 10 12 1.0000000000000000000000000
3 7 1 3 1.0000000000000000000000000
3 7 2 4 1.0000000000000000000000000
3 7 9 11 1.0000000000000000000000000
3 7 10 12 1.0000000000000000000000000
3 8 1 3 1.0000000000000000000000000
3 8 2 4 1.0000000000000000000000000
3 8 9 11 1.0000000000000000000000000
3 8 10 12 1.0000000000000000000000000
3 9 1 3 1.0000000000000000000000000
3 9 2 4 1.0000000000000000000000000
3 9 9 11 1.0000000000000000000000000
3 9 10 12 1.0000000000000000000000000
3 10 1 3 1.0000000000000000000000000
3 10 2 4 1.0000000000000000000000000
3 10 9 11 1.0000000000000000000000000
3 10 10 12 1.0000000000000000000000000
4 1 5 5 -1.0000000000000000000000000
4 1 13 13 1.0000000000000000000000000
4 2 3 7 1.0000000000000000000000000
4 2 4 8 1.0000000000000000000000000
4 2 11 15 1.0000000000000000000000000
4 2 12 16 1.0000000000000000000000000
4 3 3 3 1.0000000000000000000000000
4 3 4 4 1.0000000000000000000000000
4 3 11 11 1.0000000000000000000000000
4 3 12 12 1.0000000000000000000000000
4 4 3 3 1.0000000000000000000000000
4 4 4 4 1.0000000000000000000000000
4 4 11 11 1.0000000000000000000000000
4 4 12 12 1.0000000000000000000000000
4 5 3 3 1.0000000000000000000000000
4 5 4 4 1.0000000000000000000000000
4 5 11 11 1.0000000000000000000000000
4 5 12 12 1.0000000000000000000000000
4 6 3 3 1.0000000000000000000000000
4 6 4 4 1.0000000000000000000000000
4 6 11 11 1.0000000000000000000000000
4 6 12 12 1.0000000000000000000000000
4 7 3 3 1.0000000000000000000000000
4 7 4 4 1.0000000000000000000000000
4 7 11 11 1.0000000000000000000000000
4 7 12 12 1.0000000000000000000000000
4 8 3 3 1.0000000000000000000000000
4 8 4 4 1.0000000000000000000000000
4 8 11 11 1.0000000000000000000000000
4 8 12 12 1.0000000000000000000000000
4 9 3 3 1.0000000000000000000000000
4 9 4 4 1.0000000000000000000000000
4 9 11 11 1.0000000000000000000000000
4 9 12 12 1.0000000000000000000000000
4 10 3 3 1.0000000000000000000000000
4 10 4 4 1.0000000000000000000000000
4 10 11 11 1.0000000000000000000000000
4 10 12 12 1.0000000000000000000000000
5 1 7 7 -1.0000000000000000000000000
5 1 15 15 1.0000000000000000000000000
5 2 1 15 1.0000000000000000000000000
5 2 2 16 1.0000000000000000000000000
5 2 3 13 -1.0000000000000000000000000
5 2 4 14 -1.0000000000000000000000000
5 2 5 11 1.0000000000000000000000000
5 2 6 12 1.0000000000000000000000000
5 2 7 9 -1.0000000000000000000000000
5 2 8 10 -1.0000000000000000000000000
5 3 1 11 1.0000000000000000000000000
5 3 2 12 1.0000000000000000000000000
5 3 3 9 -1.0000000000000000000000000
5 3 4 10 -1.0000000000000000000000000
5 4 1 11 1.0000000000000000000000000
5 4 2 12 1.0000000000000000000000000
5 4 3 9 -1.0000000000000000000000000
5 4 4 10 -1.0000000000000000000000000
5 5 1 11 1.0000000000000000000000000
5 5 2 12 1.0000000000000000000000000
5 5 3 9 -1.0000000000000000000000000
5 5 4 10 -1.0000000000000000000000000
5 6 1 11 1.0000000000000000000000000
5 6 2 12 1.0000000000000000000000000
5 6 3 9 -1.0000000000000000000000000
5 6 4 10 -1.0000000000000000000000000
5 7 1 11 1.0000000000000000000000000
5 7 2 12 1.0000000000000000000000000
5 7 3 9 -1.0000000000000000000000000
5 7 4 10 -1.0000000000000000000000000
5 8 1 11 1.0000000000000000000000000
5 8 2 12 1.0000000000000000000000000
5 8 3 9 -1.0000000000000000000000000
5 8 4 10 -1.0000000000000000000000000
5 9 1 11 1.0000000000000000000000000
5 9 2 12 1.0000000000000000000000000
5 9 3 9 -1.0000000000000000000000000
5 9 4 10 -1.0000000000000000000000000
5 10 1 11 1.0000000000000000000000000
5 10 2 12 1.0000000000000000000000000
5 10 3 9 -1.0000000000000000000000000
5 10 4 10 -1.0000000000000000000000000
6 1 8 8 -1.0000000000000000000000000
6 1 16 16 1.0000000000000000000000000
6 6 5 5 1.0000000000000000000000000
6 6 7 7 1.0000000000000000000000000
6 6 13 13 1.0000000000000000000000000
6 6 15 15 1.0000000000000000000000000
6 10 5 5 1.0000000000000000000000000
6 10 7 7 1.0000000000000000000000000
6 10 13 13 1.0000000000000000000000000
6 10 15 15 1.0000000000000000000000000
7 1 10 10 -1.0000000000000000000000000
7 1 18 18 1.0000000000000000000000000
7 6 5 6 1.0000000000000000000000000
7 6 7 8 1.0000000000000000000000000
7 6 13 14 1.0000000000000000000000000
7 6 15 16 1.0000000000000000000000000
7 10 5 6 1.0000000000000000000000000
7 10 7 8 1.0000000000000000000000000
7 10 13 14 1.0000000000000000000000000
7 10 15 16 1.0000000000000000000000000
8 1 9 9 -1.0000000000000000000000000
8 1 17 17 1.0000000000000000000000000
8 6 6 6 1.0000000000000000000000000
8 6 8 8 1.0000000000000000000000000
8 6 14 14 1.0000000000000000000000000
8 6 16 16 1.0000000000000000000000000
8 10 6 6 1.0000000000000000000000000
8 10 8 8 1.0000000000000000000000000
8 10 14 14 1.0000000000000000000000000
8 10 16 16 1.0000000000000000000000000
9 1 11 11 -1.0000000000000000000000000
9 1 19 19 1.0000000000000000000000000
9 6 5 14 -1.0000000000000000000000000
9 6 6 13 1.0000000000000000000000000
9 6 7 16 -1.0000000000000000000000000
9 6 8 15 1.0000000000000000000000000
9 10 5 14 -1.0000000000000000000000000
9 10 6 13 1.0000000000000000000000000
9 10 7 16 -1.0000000000000000000000000
9 10 8 15 1.0000000000000000000000000
10 1 1 1 1.0000000000000000000000000
10 1 3 3 -8.0000000000000000000000000
11 1 2 2 -1.0000000000000000000000000
11 1 3 3 8.0000000000000000000000000
12 1 1 1 -1.0000000000000000000000000
12 2 1 1 1.0000000000000000000000000
12 2 9 9 1.0000000000000000000000000
13 2 1 2 1.0000000000000000000000000
13 2 9 10 1.0000000000000000000000000
14 2 1 3 1.0000000000000000000000000
14 2 9 11 1.0000000000000000000000000
15 1 1 1 -2.0000000000000000000000000
15 2 1 4 1.0000000000000000000000000
15 2 9 12 1.0000000000000000000000000
16 2 2 2 1.0000000000000000000000000
16 2 10 10 1.0000000000000000000000000
17 2 2 3 1.0000000000000000000000000
17 2 10 11 1.0000000000000000000000000
18 2 2 4 1.0000000000000000000000000
18 2 10 12 1.0000000000000000000000000
19 2 3 3 1.0000000000000000000000000
19 2 11 11 1.0000000000000000000000000
20 2 3 4 1.0000000000000000000000000
20 2 11 12 1.0000000000000000000000000
21 1 1 1 -1.0000000000000000000000000
21 2 4 4 1.0000000000000000000000000
21 2 12 12 1.0000000000000000000000000
22 2 1 10 1.0000000000000000000000000
22 2 2 9 -1.0000000000000000000000000
23 2 1 11 1.0000000000000000000000000
23 2 3 9 -1.0000000000000000000000000
24 2 1 12 1.0000000000000000000000000
24 2 4 9 -1.0000000000000000000000000
25 2 2 11 1.0000000000000000000000000
25 2 3 10 -1.0000000000000000000000000
26 2 2 12 1.0000000000000000000000000
26 2 4 10 -1.0000000000000000000000000
27 2 3 12 1.0000000000000000000000000
27 2 4 11 -1.0000000000000000000000000
28 2 5 5 1.0000000000000000000000000
28 2 13 13 1.0000000000000000000000000
28 3 1 5 1.0000000000000000000000000
28 3 9 13 1.0000000000000000000000000
29 2 5 6 1.0000000000000000000000000
29 2 13 14 1.0000000000000000000000000
29 3 1 6 1.0000000000000000000000000
29 3 2 5 1.0000000000000000000000000
29 3 9 14 1.0000000000000000000000000
29 3 10 13 1.0000000000000000000000000
30 2 5 7 1.0000000000000000000000000
30 2 13 15 1.0000000000000000000000000
30 3 1 7 1.0000000000000000000000000
30 3 3 5 1.0000000000000000000000000
30 3 9 15 1.0000000000000000000000000
30 3 11 13 1.0000000000000000000000000
31 2 5 8 1.0000000000000000000000000
31 2 13 16 1.0000000000000000000000000
31 3 1 8 1.0000000000000000000000000
31 3 4 5 1.0000000000000000000000000
31 3 9 16 1.0000000000000000000000000
31 3 12 13 1.0000000000000000000000000
32 2 6 6 1.0000000000000000000000000
32 2 14 14 1.0000000000000000000000000
32 3 2 6 1.0000000000000000000000000
32 3 10 14 1.0000000000000000000000000
33 2 6 7 1.0000000000000000000000000
33 2 14 15 1.0000000000000000000000000
33 3 2 7 1.0000000000000000000000000
33 3 3 6 1.0000000000000000000000000
33 3 10 15 1.0000000000000000000000000
33 3 11 14 1.0000000000000000000000000
34 2 6 8 1.0000000000000000000000000
34 2 14 16 1.0000000000000000000000000
34 3 2 8 1.0000000000000000000000000
34 3 4 6 1.0000000000000000000000000
34 3 10 16 1.0000000000000000000000000
34 3 12 14 1.0000000000000000000000000
35 2 7 7 1.0000000000000000000000000
35 2 15 15 1.0000000000000000000000000
35 3 3 7 1.0000000000000000000000000
35 3 11 15 1.0000000000000000000000000
36 2 7 8 1.0000000000000000000000000
36 2 15 16 1.0000000000000000000000000
36 3 3 8 1.0000000000000000000000000
36 3 4 7 1.0000000000000000000000000
36 3 11 16 1.0000000000000000000000000
36 3 12 15 1.0000000000000000000000000
37 2 8 8 1.0000000000000000000000000
37 2 16 16 1.0000000000000000000000000
37 3 4 8 1.0000000000000000000000000
37 3 12 16 1.0000000000000000000000000
38 2 5 14 1.0000000000000000000000000
38 2 6 13 -1.0000000000000000000000000
38 3 1 14 1.0000000000000000000000000
38 3 2 13 -1.0000000000000000000000000
38 3 5 10 1.0000000000000000000000000
38 3 6 9 -1.0000000000000000000000000
39 2 5 15 1.0000000000000000000000000
39 2 7 13 -1.0000000000000000000000000
39 3 1 15 1.0000000000000000000000000
39 3 3 13 -1.0000000000000000000000000
39 3 5 11 1.0000000000000000000000000
39 3 7 9 -1.0000000000000000000000000
40 2 5 16 1.0000000000000000000000000
40 2 8 13 -1.0000000000000000000000000
40 3 1 16 1.0000000000000000000000000
40 3 4 13 -1.0000000000000000000000000
40 3 5 12 1.0000000000000000000000000
40 3 8 9 -1.0000000000000000000000000
41 2 6 15 1.0000000000000000000000000
41 2 7 14 -1.0000000000000000000000000
41 3 2 15 1.0000000000000000000000000
41 3 3 14 -1.0000000000000000000000000
41 3 6 11 1.0000000000000000000000000
41 3 7 10 -1.0000000000000000000000000
42 2 6 16 1.0000000000000000000000000
42 2 8 14 -1.0000000000000000000000000
42 3 2 16 1.0000000000000000000000000
42 3 4 14 -1.0000000000000000000000000
42 3 6 12 1.0000000000000000000000000
42 3 8 10 -1.0000000000000000000000000
43 2 7 16 1.0000000000000000000000000
43 2 8 15 -1.0000000000000000000000000
43 3 3 16 1.0000000000000000000000000
43 3 4 15 -1.0000000000000000000000000
43 3 7 12 1.0000000000000000000000000
43 3 8 11 -1.0000000000000000000000000
44 3 5 5 1.0000000000000000000000000
44 3 13 13 1.0000000000000000000000000
44 4 1 5 1.0000000000000000000000000
44 4 9 13 1.0000000000000000000000000
45 3 5 6 1.0000000000000000000000000
45 3 13 14 1.0000000000000000000000000
45 4 1 6 1.0000000000000000000000000
45 4 2 5 1.0000000000000000000000000
45 4 9 14 1.0000000000000000000000000
45 4 10 13 1.0000000000000000000000000
46 3 5 7 1.0000000000000000000000000
46 3 13 15 1.0000000000000000000000000
46 4 1 7 1.0000000000000000000000000
46 4 3 5 1.0000000000000000000000000
46 4 9 15 1.0000000000000000000000000
46 4 11 13 1.0000000000000000000000000
47 3 5 8 1.0000000000000000000000000
47 3 13 16 1.0000000000000000000000000
47 4 1 8 1.0000000000000000000000000
47 4 4 5 1.0000000000000000000000000
47 4 9 16 1.0000000000000000000000000
47 4 12 13 1.0000000000000000000000000
48 3 6 6 1.0000000000000000000000000
48 3 14 14 1.0000000000000000000000000
48 4 2 6 1.0000000000000000000000000
48 4 10 14 1.0000000000000000000000000
49 3 6 7 1.0000000000000000000000000
49 3 14 15 1.0000000000000000000000000
49 4 2 7 1.0000000000000000000000000
49 4 3 6 1.0000000000000000000000000
49 4 10 15 1.0000000000000000000000000
49 4 11 14 1.0000000000000000000000000
50 3 6 8 1.0000000000000000000000000
50 3 14 16 1.0000000000000000000000000
50 4 2 8 1.0000000000000000000000000
50 4 4 6 1.0000000000000000000000000
50 4 10 16 1.0000000000000000000000000
50 4 12 14 1.0000000000000000000000000
51 3 7 7 1.0000000000000000000000000
51 3 15 15 1.0000000000000000000000000
51 4 3 7 1.0000000000000000000000000
51 4 11 15 1.0000000000000000000000000
52 3 7 8 1.0000000000000000000000000
52 3 15 16 1.0000000000000000000000000
52 4 3 8 1.0000000000000000000000000
52 4 4 7 1.0000000000000000000000000
52 4 11 16 1.0000000000000000000000000
52 4 12 15 1.0000000000000000000000000
53 3 8 8 1.0000000000000000000000000
53 3 16 16 1.0000000000000000000000000
53 4 4 8 1.0000000000000000000000000
53 4 12 16 1.0000000000000000000000000
54 3 5 14 1.0000000000000000000000000
54 3 6 13 -1.0000000000000000000000000
54 4 1 14 1.0000000000000000000000000
54 4 2 13 -1.0000000000000000000000000
54 4 5 10 1.0000000000000000000000000
54 4 6 9 -1.0000000000000000000000000
55 3 5 15 1.0000000000000000000000000
55 3 7 13 -1.0000000000000000000000000
55 4 1 15 1.0000000000000000000000000
55 4 3 13 -1.0000000000000000000000000
55 4 5 11 1.0000000000000000000000000
55 4 7 9 -1.0000000000000000000000000
56 3 5 16 1.0000000000000000000000000
56 3 8 13 -1.0000000000000000000000000
56 4 1 16 1.0000000000000000000000000
56 4 4 13 -1.0000000000000000000000000
56 4 5 12 1.0000000000000000000000000
56 4 8 9 -1.0000000000000000000000000
57 3 6 15 1.0000000000000000000000000
57 3 7 14 -1.0000000000000000000000000
57 4 2 15 1.0000000000000000000000000
57 4 3 14 -1.0000000000000000000000000
57 4 6 11 1.0000000000000000000000000
57 4 7 10 -1.0000000000000000000000000
58 3 6 16 1.0000000000000000000000000
58 3 8 14 -1.0000000000000000000000000
58 4 2 16 1.0000000000000000000000000
58 4 4 14 -1.0000000000000000000000000
58 4 6 12 1.0000000000000000000000000
58 4 8 10 -1.0000000000000000000000000
59 3 7 16 1.0000000000000000000000000
59 3 8 15 -1.0000000000000000000000000
59 4 3 16 1.0000000000000000000000000
59 4 4 15 -1.0000000000000000000000000
59 4 7 12 1.0000000000000000000000000
59 4 8 11 -1.0000000000000000000000000
60 4 5 5 1.0000000000000000000000000
60 4 13 13 1.0000000000000000000000000
60 5 1 5 1.0000000000000000000000000
60 5 9 13 1.0000000000000000000000000
61 4 5 6 1.0000000000000000000000000
61 4 13 14 1.0000000000000000000000000
61 5 1 6 1.0000000000000000000000000
61 5 2 5 1.0000000000000000000000000
61 5 9 14 1.0000000000000000000000000
61 5 10 13 1.0000000000000000000000000
62 4 5 7 1.0000000000000000000000000
62 4 13 15 1.0000000000000000000000000
62 5 1 7 1.0000000000000000000000000
62 5 3 5 1.0000000000000000000000000
62 5 9 15 1.0000000000000000000000000
62 5 11 13 1.0000000000000000000000000
63 4 5 8 1.0000000000000000000000000
63 4 13 16 1.0000000000000000000000000
63 5 1 8 1.0000000000000000000000000
63 5 4 5 1.0000000000000000000000000
63 5 9 16 1.0000000000000000000000000
63 5 12 13 1.0000000000000000000000000
64 4 6 6 1.0000000000000000000000000
64 4 14 14 1.0000000000000000000000000
64 5 2 6 1.0000000000000000000000000
64 5 10 14 1.0000000000000000000000000
65 4 6 7 1.0000000000000000000000000
65 4 14 15 1.0000000000000000000000000
65 5 2 7 1.0000000000000000000000000
65 5 3 6 1.0000000000000000000000000
65 5 10 15 1.0000000000000000000000000
65 5 11 14 1.0000000000000000000000000
66 4 6 8 1.0000000000000000000000000
66 4 14 16 1.0000000000000000000000000
66 5 2 8 1.0000000000000000000000000
66 5 4 6 1.0000000000000000000000000
66 5 10 16 1.0000000000000000000000000
66 5 12 14 1.0000000000000000000000000
67 4 7 7 1.0000000000000000000000000
67 4 15 15 1.0000000000000000000000000
67 5 3 7 1.0000000000000000000000000
67 5 11 15 1.0000000000000000000000000
68 4 7 8 1.0000000000000000000000000
68 4 15 16 1.0000000000000000000000000
68 5 3 8 1.0000000000000000000000000
68 5 4 7 1.0000000000000000000000000
68 5 11 16 1.0000000000000000000000000
68 5 12 15 1.0000000000000000000000000
69 4 8 8 1.0000000000000000000000000
69 4 16 16 1.0000000000000000000000000
69 5 4 8 1.0000000000000000000000000
69 5 12 16 1.0000000000000000000000000
70 4 5 14 1.0000000000000000000000000
70 4 6 13 -1.0000000000000000000000000
70 5 1 14 1.0000000000000000000000000
70 5 2 13 -1.0000000000000000000000000
70 5 5 10 1.0000000000000000000000000
70 5 6 9 -1.0000000000000000000000000
71 4 5 15 1.0000000000000000000000000
71 4 7 13 -1.0000000000000000000000000
71 5 1 15 1.0000000000000000000000000
71 5 3 13 -1.0000000000000000000000000
71 5 5 11 1.0000000000000000000000000
71 5 7 9 -1.0000000000000000000000000
72 4 5 16 1.0000000000000000000000000
72 4 8 13 -1.0000000000000000000000000
72 5 1 16 1.0000000000000000000000000
72 5 4 13 -1.0000000000000000000000000
72 5 5 12 1.0000000000000000000000000
72 5 8 9 -1.0000000000000000000000000
73 4 6 15 1.0000000000000000000000000
73 4 7 14 -1.0000000000000000000000000
73 5 2 15 1.0000000000000000000000000
73 5 3 14 -1.0000000000000000000000000
73 5 6 11 1.0000000000000000000000000
73 5 7 10 -1.0000000000000000000000000
74 4 6 16 1.0000000000000000000000000
74 4 8 14 -1.0000000000000000000000000
74 5 2 16 1.0000000000000000000000000
74 5 4 14 -1.0000000000000000000000000
74 5 6 12 1.0000000000000000000000000
74 5 8 10 -1.0000000000000000000000000
75 4 7 16 1.0000000000000000000000000
75 4 8 15 -1.0000000000000000000000000
75 5 3 16 1.0000000000000000000000000
75 5 4 15 -1.0000000000000000000000000
75 5 7 12 1.0000000000000000000000000
75 5 8 11 -1.0000000000000000000000000
76 5 5 5 1.0000000000000000000000000
76 5 13 13 1.0000000000000000000000000
76 6 1 5 1.0000000000000000000000000
76 6 9 13 1.0000000000000000000000000
77 5 5 6 1.0000000000000000000000000
77 5 13 14 1.0000000000000000000000000
77 6 1 6 1.0000000000000000000000000
77 6 2 5 1.0000000000000000000000000
77 6 9 14 1.0000000000000000000000000
77 6 10 13 1.0000000000000000000000000
78 5 5 7 1.0000000000000000000000000
78 5 13 15 1.0000000000000000000000000
78 6 1 7 1.0000000000000000000000000
78 6 3 5 1.0000000000000000000000000
78 6 9 15 1.0000000000000000000000000
78 6 11 13 1.0000000000000000000000000
79 5 5 8 1.0000000000000000000000000
79 5 13 16 1.0000000000000000000000000
79 6 1 8 1.0000000000000000000000000
79 6 4 5 1.0000000000000000000000000
79 6 9 16 1.0000000000000000000000000
79 6 12 13 1.0000000000000000000000000
80 5 6 6 1.0000000000000000000000000
80 5 14 14 1.0000000000000000000000000
80 6 2 6 1.0000000000000000000000000
80 6 10 14 1.0000000000000000000000000
81 5 6 7 1.0000000000000000000000000
81 5 14 15 1.0000000000000000000000000
81 6 2 7 1.0000000000000000000000000
81 6 3 6 1.0000000000000000000000000
81 6 10 15 1.0000000000000000000000000
81 6 11 14 1.0000000000000000000000000
82 5 6 8 1.0000000000000000000000000
82 5 14 16 1.0000000000000000000000000
82 6 2 8 1.0000000000000000000000000
82 6 4 6 1.0000000000000000000000000
82 6 10 16 1.0000000000000000000000000
82 6 12 14 1.0000000000000000000000000
83 5 7 7 1.0000000000000000000000000
83 5 15 15 1.0000000000000000000000000
83 6 3 7 1.0000000000000000000000000
83 6 11 15 1.0000000000000000000000000
84 5 7 8 1.0000000000000000000000000
84 5 15 16 1.0000000000000000000000000
84 6 3 8 1.0000000000000000000000000
84 6 4 7 1.0000000000000000000000000
84 6 11 16 1.0000000000000000000000000
84 6 12 15 1.0000000000000000000000000
85 5 8 8 1.0000000000000000000000000
85 5 16 16 1.0000000000000000000000000
85 6 4 8 1.0000000000000000000000000
85 6 12 16 1.0000000000000000000000000
86 5 5 14 1.0000000000000000000000000
86 5 6 13 -1.0000000000000000000000000
86 6 1 14 1.0000000000000000000000000
86 6 2 13 -1.0000000000000000000000000
86 6 5 10 1.0000000000000000000000000
86 6 6 9 -1.0000000000000000000000000
87 5 5 15 1.0000000000000000000000000
87 5 7 13 -1.0000000000000000000000000
87 6 1 15 1.0000000000000000000000000
87 6 3 13 -1.0000000000000000000000000
87 6 5 11 1.0000000000000000000000000
87 6 7 9 -1.0000000000000000000000000
88 5 5 16 1.0000000000000000000000000
88 5 8 13 -1.0000000000000000000000000
88 6 1 16 1.0000000000000000000000000
88 6 4 13 -1.0000000000000000000000000
88 6 5 12 1.0000000000000000000000000
88 6 8 9 -1.0000000000000000000000000
89 5 6 15 1.0000000000000000000000000
89 5 7 14 -1.0000000000000000000000000
89 6 2 15 1.0000000000000000000000000
89 6 3 14 -1.0000000000000000000000000
89 6 6 11 1.0000000000000000000000000
89 6 7 10 -1.0000000000000000000000000
90 5 6 16 1.0000000000000000000000000
90 5 8 14 -1.0000000000000000000000000
90 6 2 16 1.0000000000000000000000000
90 6 4 14 -1.0000000000000000000000000
90 6 6 12 1.0000000000000000000000000
90 6 8 10 -1.0000000000000000000000000
91 5 7 16 1.0000000000000000000000000
91 5 8 15 -1.0000000000000000000000000
91 6 3 16 1.0000000000000000000000000
91 6 4 15 -1.0000000000000000000000000
91 6 7 12 1.0000000000000000000000000
91 6 8 11 -1.0000000000000000000000000
92 1 2 2 1.0000000000000000000000000
92 7 1 5 1.0000000000000000000000000
92 7 9 13 1.0000000000000000000000000
93 7 1 6 1.0000000000000000000000000
93 7 2 5 1.0000000000000000000000000
93 7 9 14 1.0000000000000000000000000
93 7 10 13 1.0000000000000000000000000
94 7 1 7 1.0000000000000000000000000
94 7 3 5 1.0000000000000000000000000
94 7 9 15 1.0000000000000000000000000
94 7 11 13 1.0000000000000000000000000
95 1 2 2 2.0000000000000000000000000
95 7 1 8 1.0000000000000000000000000
95 7 4 5 1.0000000000000000000000000
95 7 9 16 1.0000000000000000000000000
95 7 12 13 1.0000000000000000000000000
96 7 2 6 1.0000000000000000000000000
96 7 10 14 1.0000000000000000000000000
97 7 2 7 1.0000000000000000000000000
97 7 3 6 1.0000000000000000000000000
97 7 10 15 1.0000000000000000000000000
97 7 11 14 1.0000000000000000000000000
98 7 2 8 1.0000000000000000000000000
98 7 4 6 1.0000000000000000000000000
98 7 10 16 1.0000000000000000000000000
98 7 12 14 1.0000000000000000000000000
99 7 3 7 1.0000000000000000000000000
99 7 11 15 1.0000000000000000000000000
100 7 3 8 1.0000000000000000000000000
100 7 4 7 1.0000000000000000000000000
100 7 11 16 1.0000000000000000000000000
100 7 12 15 1.0000000000000000000000000
101 1 2 2 1.0000000000000000000000000
101 7 4 8 1.0000000000000000000000000
101 7 12 16 1.0000000000000000000000000
102 7 1 14 1.0000000000000000000000000
102 7 2 13 -1.0000000000000000000000000
102 7 5 10 1.0000000000000000000000000
102 7 6 9 -1.0000000000000000000000000
103 7 1 15 1.0000000000000000000000000
103 7 3 13 -1.0000000000000000000000000
103 7 5 11 1.0000000000000000000000000
103 7 7 9 -1.0000000000000000000000000
104 7 1 16 1.0000000000000000000000000
104 7 4 13 -1.0000000000000000000000000
104 7 5 12 1.0000000000000000000000000
104 7 8 9 -1.0000000000000000000000000
105 7 2 15 1.0000000000000000000000000
105 7 3 14 -1.0000000000000000000000000
105 7 6 11 1.0000000000000000000000000
105 7 7 10 -1.0000000000000000000000000
106 7 2 16 1.0000000000000000000000000
106 7 4 14 -1.0000000000000000000000000
106 7 6 12 1.0000000000000000000000000
106 7 8 10 -1.0000000000000000000000000
107 7 3 16 1.0000000000000000000000000
107 7 4 15 -1.0000000000000000000000000
107 7 7 12 1.0000000000000000000000000
107 7 8 11 -1.0000000000000000000000000
108 7 5 5 1.0000000000000000000000000
108 7 13 13 1.0000000000000000000000000
108 8 1 5 1.0000000000000000000000000
108 8 9 13 1.0000000000000000000000000
109 7 5 6 1.0000000000000000000000000
109 7 13 14 1.0000000000000000000000000
109 8 1 6 1.0000000000000000000000000
109 8 2 5 1.0000000000000000000000000
109 8 9 14 1.0000000000000000000000000
109 8 10 13 1.0000000000000000000000000
110 7 5 7 1.0000000000000000000000000
110 7 13 15 1.0000000000000000000000000
110 8 1 7 1.0000000000000000000000000
110 8 3 5 1.0000000000000000000000000
110 8 9 15 1.0000000000000000000000000
110 8 11 13 1.0000000000000000000000000
111 7 5 8 1.0000000000000000000000000
111 7 13 16 1.0000000000000000000000000
111 8 1 8 1.0000000000000000000000000
111 8 4 5 1.0000000000000000000000000
111 8 9 16 1.0000000000000000000000000
111 8 12 13 1.0000000000000000000000000
112 7 6 6 1.0000000000000000000000000
112 7 14 14 1.0000000000000000000000000
112 8 2 6 1.0000000000000000000000000
112 8 10 14 1.0000000000000000000000000
113 7 6 7 1.0000000000000000000000000
113 7 14 15 1.0000000000000000000000000
113 8 2 7 1.0000000000000000000000000
113 8 3 6 1.0000000000000000000000000
113 8 10 15 1.0000000000000000000000000
113 8 11 14 1.0000000000000000000000000
114 7 6 8 1.0000000000000000000000000
114 7 14 16 1.0000000000000000000000000
114 8 2 8 1.0000000000000000000000000
114 8 4 6 1.0000000000000000000000000
114 8 10 16 1.0000000000000000000000000
114 8 12 14 1.0000000000000000000000000
115 7 7 7 1.0000000000000000000000000
115 7 15 15 1.0000000000000000000000000
115 8 3 7 1.0000000000000000000000000
115 8 11 15 1.0000000000000000000000000
116 7 7 8 1.0000000000000000000000000
116 7 15 16 1.0000000000000000000000000
116 8 3 8 1.0000000000000000000000000
116 8 4 7 1.0000000000000000000000000
116 8 11 16 1.0000000000000000000000000
116 8 12 15 1.0000000000000000000000000
117 7 8 8 1.0000000000000000000000000
117 7 16 16 1.0000000000000000000000000
117 8 4 8 1.0000000000000000000000000
117 8 12 16 1.0000000000000000000000000
118 7 5 14 1.0000000000000000000000000
118 7 6 13 -1.0000000000000000000000000
118 8 1 14 1.0000000000000000000000000
118 8 2 13 -1.0000000000000000000000000
118 8 5 10 1.0000000000000000000000000
118 8 6 9 -1.0000000000000000000000000
119 7 5 15 1.0000000000000000000000000
119 7 7 13 -1.0000000000000000000000000
119 8 1 15 1.0000000000000000000000000
119 8 3 13 -1.0000000000000000000000000
119 8 5 11 1.0000000000000000000000000
119 8 7 9 -1.0000000000000000000000000
120 7 5 16 1.0000000000000000000000000
120 7 8 13 -1.0000000000000000000000000
120 8 1 16 1.0000000000000000000000000
120 8 4 13 -1.0000000000000000000000000
120 8 5 12 1.0000000000000000000000000
120 8 8 9 -1.0000000000000000000000000
121 7 6 15 1.0000000000000000000000000
121 7 7 14 -1.0000000000000000000000000
121 8 2 15 1.0000000000000000000000000
121 8 3 14 -1.0000000000000000000000000
121 8 6 11 1.0000000000000000000000000
121 8 7 10 -1.0000000000000000000000000
122 7 6 16 1.0000000000000000000000000
122 7 8 14 -1.0000000000000000000000000
122 8 2 16 1.0000000000000000000000000
122 8 4 14 -1.0000000000000000000000000
122 8 6 12 1.0000000000000000000000000
122 8 8 10 -1.0000000000000000000000000
123 7 7 16 1.0000000000000000000000000
123 7 8 15 -1.0000000000000000000000000
123 8 3 16 1.0000000000000000000000000
123 8 4 15 -1.0000000000000000000000000
123 8 7 12 1.0000000000000000000000000
123 8 8 11 -1.0000000000000000000000000
124 8 5 5 1.0000000000000000000000000
124 8 13 13 1.0000000000000000000000000
124 9 1 5 1.0000000000000000000000000
124 9 9 13 1.0000000000000000000000000
125 8 5 6 1.0000000000000000000000000
125 8 13 14 1.0000000000000000000000000
125 9 1 6 1.0000000000000000000000000
125 9 2 5 1.0000000000000000000000000
125 9 9 14 1.0000000000000000000000000
125 9 10 13 1.0000000000000000000000000
126 8 5 7 1.0000000000000000000000000
126 8 13 15 1.0000000000000000000000000
126 9 1 7 1.0000000000000000000000000
126 9 3 5 1.0000000000000000000000000
126 9 9 15 1.0000000000000000000000000
126 9 11 13 1.0000000000000000000000000
127 8 5 8 1.0000000000000000000000000
127 8 13 16 1.0000000000000000000000000
127 9 1 8 1.0000000000000000000000000
127 9 4 5 1.0000000000000000000000000
127 9 9 16 1.0000000000000000000000000
127 9 12 13 1.0000000000000000000000000
128 8 6 6 1.0000000000000000000000000
128 8 14 14 1.0000000000000000000000000
128 9 2 6 1.0000000000000000000000000
128 9 10 14 1.0000000000000000000000000
129 8 6 7 1.0000000000000000000000000
129 8 14 15 1.0000000000000000000000000
129 9 2 7 1.0000000000000000000000000
129 9 3 6 1.0000000000000000000000000
129 9 10 15 1.0000000000000000000000000
129 9 11 14 1.0000000000000000000000000
130 8 6 8 1.0000000000000000000000000
130 8 14 16 1.0000000000000000000000000
130 9 2 8 1.0000000000000000000000000
130 9 4 6 1.0000000000000000000000000
130 9 10 16 1.0000000000000000000000000
130 9 12 14 1.0000000000000000000000000
131 8 7 7 1.0000000000000000000000000
131 8 15 15 1.0000000000000000000000000
131 9 3 7 1.0000000000000000000000000
131 9 11 15 1.0000000000000000000000000
132 8 7 8 1.0000000000000000000000000
132 8 15 16 1.0000000000000000000000000
132 9 3 8 1.0000000000000000000000000
132 9 4 7 1.0000000000000000000000000
132 9 11 16 1.0000000000000000000000000
132 9 12 15 1.0000000000000000000000000
133 8 8 8 1.0000000000000000000000000
133 8 16 16 1.0000000000000000000000000
133 9 4 8 1.0000000000000000000000000
133 9 12 16 1.0000000000000000000000000
134 8 5 14 1.0000000000000000000000000
134 8 6 13 -1.0000000000000000000000000
134 9 1 14 1.0000000000000000000000000
134 9 2 13 -1.0000000000000000000000000
134 9 5 10 1.0000000000000000000000000
134 9 6 9 -1.0000000000000000000000000
135 8 5 15 1.0000000000000000000000000
135 8 7 13 -1.0000000000000000000000000
135 9 1 15 1.0000000000000000000000000
135 9 3 13 -1.0000000000000000000000000
135 9 5 11 1.0000000000000000000000000
135 9 7 9 -1.0000000000000000000000000
136 8 5 16 1.0000000000000000000000000
136 8 8 13 -1.0000000000000000000000000
136 9 1 16 1.0000000000000000000000000
136 9 4 13 -1.0000000000000000000000000
136 9 5 12 1.0000000000000000000000000
136 9 8 9 -1.0000000000000000000000000
137 8 6 15 1.0000000000000000000000000
137 8 7 14 -1.0000000000000000000000000
137 9 2 15 1.0000000000000000000000000
137 9 3 14 -1.0000000000000000000000000
137 9 6 11 1.0000000000000000000000000
137 9 7 10 -1.0000000000000000000000000
138 8 6 16 1.0000000000000000000000000
138 8 8 14 -1.0000000000000000000000000
138 9 2 16 1.0000000000000000000000000
138 9 4 14 -1.0000000000000000000000000
138 9 6 12 1.0000000000000000000000000
138 9 8 10 -1.0000000000000000000000000
139 8 7 16 1.0000000000000000000000000
139 8 8 15 -1.0000000000000000000000000
139 9 3 16 1.0000000000000000000000000
139 9 4 15 -1.0000000000000000000000000
139 9 7 12 1.0000000000000000000000000
139 9 8 11 -1.0000000000000000000000000
140 9 5 5 1.0000000000000000000000000
140 9 13 13 1.0000000000000000000000000
140 10 1 5 1.0000000000000000000000000
140 10 9 13 1.0000000000000000000000000
141 9 5 6 1.0000000000000000000000000
141 9 13 14 1.0000000000000000000000000
141 10 1 6 1.0000000000000000000000000
141 10 2 5 1.0000000000000000000000000
141 10 9 14 1.0000000000000000000000000
141 10 10 13 1.0000000000000000000000000
142 9 5 7 1.0000000000000000000000000
142 9 13 15 1.0000000000000000000000000
142 10 1 7 1.0000000000000000000000000
142 10 3 5 1.0000000000000000000000000
142 10 9 15 1.0000000000000000000000000
142 10 11 13 1.0000000000000000000000000
143 9 5 8 1.0000000000000000000000000
143 9 13 16 1.0000000000000000000000000
143 10 1 8 1.0000000000000000000000000
143 10 4 5 1.0000000000000000000000000
143 10 9 16 1.0000000000000000000000000
143 10 12 13 1.0000000000000000000000000
144 9 6 6 1.0000000000000000000000000
144 9 14 14 1.0000000000000000000000000
144 10 2 6 1.0000000000000000000000000
144 10 10 14 1.0000000000000000000000000
145 9 6 7 1.0000000000000000000000000
145 9 14 15 1.0000000000000000000000000
145 10 2 7 1.0000000000000000000000000
145 10 3 6 1.0000000000000000000000000
145 10 10 15 1.0000000000000000000000000
145 10 11 14 1.0000000000000000000000000
146 9 6 8 1.0000000000000000000000000
146 9 14 16 1.0000000000000000000000000
146 10 2 8 1.0000000000000000000000000
146 10 4 6 1.0000000000000000000000000
146 10 10 16 1.0000000000000000000000000
146 10 12 14 1.0000000000000000000000000
147 9 7 7 1.0000000000000000000000000
147 9 15 15 1.0000000000000000000000000
147 10 3 7 1.0000000000000000000000000
147 10 11 15 1.0000000000000000000000000
148 9 7 8 1.0000000000000000000000000
148 9 15 16 1.0000000000000000000000000
148 10 3 8 1.0000000000000000000000000
148 10 4 7 1.0000000000000000000000000
148 10 11 16 1.0000000000000000000000000
148 10 12 15 1.0000000000000000000000000
149 9 8 8 1.0000000000000000000000000
149 9 16 16 1.0000000000000000000000000
149 10 4 8 1.0000000000000000000000000
149 10 12 16 1.0000000000000000000000000
150 9 5 14 1.0000000000000000000000000
150 9 6 13 -1.0000000000000000000000000
150 10 1 14 1.0000000000000000000000000
150 10 2 13 -1.0000000000000000000000000
150 10 5 10 1.0000000000000000000000000
150 10 6 9 -1.0000000000000000000000000
151 9 5 15 1.0000000000000000000000000
151 9 7 13 -1.0000000000000000000000000
151 10 1 15 1.0000000000000000000000000
151 10 3 13 -1.0000000000000000000000000
151 10 5 11 1.0000000000000000000000000
151 10 7 9 -1.0000000000000000000000000
152 9 5 16 1.0000000000000000000000000
152 9 8 13 -1.0000000000000000000000000
152 10 1 16 1.0000000000000000000000000
152 10 4 13 -1.0000000000000000000000000
152 10 5 12 1.0000000000000000000000000
152 10 8 9 -1.0000000000000000000000000
153 9 6 15 1.0000000000000000000000000
153 9 7 14 -1.0000000000000000000000000
153 10 2 15 1.0000000000000000000000000
153 10 3 14 -1.0000000000000000000000000
153 10 6 11 1.0000000000000000000000000
153 10 7 10 -1.0000000000000000000000000
154 9 6 16 1.0000000000000000000000000
154 9 8 14 -1.0000000000000000000000000
154 10 2 16 1.0000000000000000000000000
154 10 4 14 -1.0000000000000000000000000
154 10 6 12 1.0000000000000000000000000
154 10 8 10 -1.0000000000000000000000000
155 9 7 16 1.0000000000000000000000000
155 9 8 15 -1.0000000000000000000000000
155 10 3 16 1.0000000000000000000000000
155 10 4 15 -1.0000000000000000000000000
155 10 7 12 1.0000000000000000000000000
155 10 8 11 -1.0000000000000000000000000
